<number of tasks>
50

<cycle time>
1000

<order strength>
0.904


<task times>
1 369
2 426
3 612
4 388
5 646
6 598
7 634
8 568
9 623
10 301
11 470
12 522
13 520
14 424
15 431
16 455
17 522
18 384
19 490
20 508
21 627
22 327
23 676
24 405
25 466
26 628
27 481
28 230
29 483
30 598
31 312
32 458
33 413
34 577
35 534
36 605
37 474
38 660
39 270
40 530
41 349
42 521
43 502
44 408
45 336
46 386
47 500
48 418
49 197
50 448

<precedence relations>
1,3
1,4
1,5
1,6
2,3
2,4
2,5
2,6
3,7
3,8
3,9
4,7
4,8
4,9
5,7
5,8
5,9
6,7
6,8
6,9
7,10
7,11
7,12
7,13
8,10
8,11
8,12
8,13
9,10
9,13
10,14
11,14
12,14
13,14
14,15
14,16
15,17
15,18
15,19
16,17
16,18
16,19
17,20
18,20
18,21
19,22
20,23
20,25
20,26
21,24
21,29
22,24
23,27
23,28
24,27
24,28
25,27
26,27
26,29
27,31
28,30
28,31
29,30
29,31
30,32
30,33
31,32
31,33
32,34
32,35
33,34
33,35
34,36
34,39
35,36
35,37
36,40
36,41
37,38
37,39
37,40
37,41
38,42
38,43
38,44
39,42
39,45
39,50
40,44
40,45
41,43
42,47
43,46
44,49
46,48
46,49
46,50

<end>
